(set-logic ALL)
(declare-const GEN1 Int)
(declare-const GEN2 Int)
(declare-const BAV3 Bool)
(declare-const BAV4 Bool)
(set-info :smt-lib-version 2.0)
(declare-fun x () Real)
(declare-fun y () Real)
(declare-fun n () Real)
(assert (= (+ x n) GEN1))
(assert (= (+ y n) GEN2))
(assert (= BAV3 (= (+ x n) GEN1)))
(assert (= BAV4 (= (+ y n) GEN2)))
(check-sat)
(get-model)